;; Automatically generated 15D closed-loop LQR CHC for eady
;; Note: Singleton initialization applied (all states start exactly at 0.0)
(set-logic HORN)

(declare-fun Inv (Real Real Real Real Real Real Real Real Real Real Real Real Real Real Real) Bool)

;; 1. Initialization
(assert
  (forall ((x0 Real) (x1 Real) (x2 Real) (x3 Real) (x4 Real) (x5 Real) (x6 Real) (x7 Real) (x8 Real) (x9 Real) (x10 Real) (x11 Real) (x12 Real) (x13 Real) (x14 Real))
    (=>
      (and
        (= x0 0.0)
        (= x1 0.0)
        (= x2 0.0)
        (= x3 0.0)
        (= x4 0.0)
        (= x5 0.0)
        (= x6 0.0)
        (= x7 0.0)
        (= x8 0.0)
        (= x9 0.0)
        (= x10 0.0)
        (= x11 0.0)
        (= x12 0.0)
        (= x13 0.0)
        (= x14 0.0)
      )
      (Inv x0 x1 x2 x3 x4 x5 x6 x7 x8 x9 x10 x11 x12 x13 x14)
    )
  )
)

;; 2. Transition (Closed-Loop Affine Step)
(assert
  (forall ((x0 Real) (x1 Real) (x2 Real) (x3 Real) (x4 Real) (x5 Real) (x6 Real) (x7 Real) (x8 Real) (x9 Real) (x10 Real) (x11 Real) (x12 Real) (x13 Real) (x14 Real)
           (x0_next Real) (x1_next Real) (x2_next Real) (x3_next Real) (x4_next Real) (x5_next Real) (x6_next Real) (x7_next Real) (x8_next Real) (x9_next Real) (x10_next Real) (x11_next Real) (x12_next Real) (x13_next Real) (x14_next Real))
    (=>
      (and
        (Inv x0 x1 x2 x3 x4 x5 x6 x7 x8 x9 x10 x11 x12 x13 x14)

        (= x0_next (+ (* 0.959967 x0) (+ (* -0.013232 x1) (+ (* 0.000990 x2) (+ (* -0.006993 x3) (+ (* -0.001689 x4) (+ (* -0.006259 x5) (+ (* -0.002988 x6) (+ (* -0.006569 x7) (+ (* -0.004392 x8) (+ (* -0.008902 x9) (+ (* -0.007686 x10) (+ (* -0.013123 x11) (+ (* -0.011905 x12) (+ (* -0.012514 x13) (* -0.017034 x14))))))))))))))))
        (= x1_next (+ (* 0.006499 x0) (+ (* 0.963069 x1) (+ (* -0.013011 x2) (+ (* 0.000476 x3) (+ (* -0.006883 x4) (+ (* -0.002312 x5) (+ (* -0.006152 x6) (+ (* -0.003952 x7) (+ (* -0.006602 x8) (+ (* -0.007010 x9) (+ (* -0.009321 x10) (+ (* -0.011701 x11) (+ (* -0.013144 x12) (+ (* -0.011434 x13) (* -0.017973 x14))))))))))))))))
        (= x2_next (+ (* -0.007501 x0) (+ (* 0.005809 x1) (+ (* 0.967559 x2) (+ (* -0.013525 x3) (+ (* 0.000586 x4) (+ (* -0.007506 x5) (+ (* -0.002206 x6) (+ (* -0.007117 x7) (+ (* -0.003985 x8) (+ (* -0.009220 x9) (+ (* -0.007429 x10) (+ (* -0.013337 x11) (+ (* -0.011722 x12) (+ (* -0.012673 x13) (* -0.016893 x14))))))))))))))))
        (= x3_next (+ (* -0.000032 x0) (+ (* -0.008192 x1) (+ (* 0.006030 x2) (+ (* 0.971564 x3) (+ (* -0.013415 x4) (+ (* -0.000037 x5) (+ (* -0.007400 x6) (+ (* -0.003170 x7) (+ (* -0.007150 x8) (+ (* -0.006604 x9) (+ (* -0.009639 x10) (+ (* -0.011445 x11) (+ (* -0.013358 x12) (+ (* -0.011252 x13) (* -0.018132 x14))))))))))))))))
        (= x4_next (+ (* -0.005226 x0) (+ (* -0.000723 x1) (+ (* -0.007971 x2) (+ (* 0.005516 x3) (+ (* 0.976157 x4) (+ (* -0.014038 x5) (+ (* 0.000069 x6) (+ (* -0.008364 x7) (+ (* -0.003203 x8) (+ (* -0.009768 x9) (+ (* -0.007023 x10) (+ (* -0.013655 x11) (+ (* -0.011466 x12) (+ (* -0.012887 x13) (* -0.016710 x14))))))))))))))))
        (= x5_next (+ (* -0.001280 x0) (+ (* -0.005917 x1) (+ (* -0.000502 x2) (+ (* -0.008485 x3) (+ (* 0.005626 x4) (+ (* 0.979702 x5) (+ (* -0.013931 x6) (+ (* -0.000895 x7) (+ (* -0.008397 x8) (+ (* -0.005821 x9) (+ (* -0.010187 x10) (+ (* -0.011038 x11) (+ (* -0.013676 x12) (+ (* -0.010995 x13) (* -0.018346 x14))))))))))))))))
        (= x6_next (+ (* -0.004444 x0) (+ (* -0.001970 x1) (+ (* -0.005696 x2) (+ (* -0.001016 x3) (+ (* -0.008375 x4) (+ (* 0.005003 x5) (+ (* 0.983457 x6) (+ (* -0.014896 x7) (+ (* -0.000928 x8) (+ (* -0.011015 x9) (+ (* -0.006240 x10) (+ (* -0.014203 x11) (+ (* -0.011059 x12) (+ (* -0.013205 x13) (* -0.016454 x14))))))))))))))))
        (= x7_next (+ (* -0.001828 x0) (+ (* -0.005134 x1) (+ (* -0.001749 x2) (+ (* -0.006210 x3) (+ (* -0.000906 x4) (+ (* -0.008998 x5) (+ (* 0.005109 x6) (+ (* 0.985521 x7) (+ (* -0.014929 x8) (+ (* -0.003546 x9) (+ (* -0.011434 x10) (+ (* -0.010256 x11) (+ (* -0.014223 x12) (+ (* -0.010588 x13) (* -0.018664 x14))))))))))))))))
        (= x8_next (+ (* -0.004038 x0) (+ (* -0.002518 x1) (+ (* -0.004914 x2) (+ (* -0.002263 x3) (+ (* -0.006100 x4) (+ (* -0.001529 x5) (+ (* -0.008891 x6) (+ (* 0.004145 x7) (+ (* 0.987895 x8) (+ (* -0.017547 x9) (+ (* -0.003965 x10) (+ (* -0.015450 x11) (+ (* -0.010277 x12) (+ (* -0.013753 x13) (* -0.016047 x14))))))))))))))))
        (= x9_next (+ (* -0.002145 x0) (+ (* -0.004728 x1) (+ (* -0.002297 x2) (+ (* -0.005428 x3) (+ (* -0.002153 x4) (+ (* -0.006723 x5) (+ (* -0.001422 x6) (+ (* -0.009856 x7) (+ (* 0.004112 x8) (+ (* 0.987123 x9) (+ (* -0.017966 x10) (+ (* -0.007981 x11) (+ (* -0.015471 x12) (+ (* -0.009806 x13) (* -0.019211 x14))))))))))))))))
        (= x10_next (+ (* -0.003781 x0) (+ (* -0.002836 x1) (+ (* -0.004507 x2) (+ (* -0.002811 x3) (+ (* -0.005318 x4) (+ (* -0.002776 x5) (+ (* -0.006616 x6) (+ (* -0.002387 x7) (+ (* -0.009889 x8) (+ (* 0.001494 x9) (+ (* 0.988081 x10) (+ (* -0.021982 x11) (+ (* -0.008002 x12) (+ (* -0.015000 x13) (* -0.015265 x14))))))))))))))))
        (= x11_next (+ (* -0.002359 x0) (+ (* -0.004471 x1) (+ (* -0.002615 x2) (+ (* -0.005021 x3) (+ (* -0.002701 x4) (+ (* -0.005941 x5) (+ (* -0.002670 x6) (+ (* -0.007581 x7) (+ (* -0.002419 x8) (+ (* -0.012507 x9) (+ (* 0.001075 x10) (+ (* 0.985073 x11) (+ (* -0.022003 x12) (+ (* -0.007531 x13) (* -0.020459 x14))))))))))))))))
        (= x12_next (+ (* -0.003598 x0) (+ (* -0.003049 x1) (+ (* -0.004250 x2) (+ (* -0.003129 x3) (+ (* -0.004911 x4) (+ (* -0.003324 x5) (+ (* -0.005834 x6) (+ (* -0.003634 x7) (+ (* -0.007613 x8) (+ (* -0.005038 x9) (+ (* -0.012926 x10) (+ (* -0.002941 x11) (+ (* 0.985778 x12) (+ (* -0.021532 x13) (* -0.012990 x14))))))))))))))))
        (= x13_next (+ (* -0.002518 x0) (+ (* -0.004289 x1) (+ (* -0.002829 x2) (+ (* -0.004764 x3) (+ (* -0.003019 x4) (+ (* -0.005534 x5) (+ (* -0.003218 x6) (+ (* -0.006799 x7) (+ (* -0.003667 x8) (+ (* -0.010232 x9) (+ (* -0.005457 x10) (+ (* -0.016942 x11) (+ (* -0.002962 x12) (+ (* 0.986765 x13) (* -0.026991 x14))))))))))))))))
        (= x14_next (+ (* -0.003457 x0) (+ (* -0.003208 x1) (+ (* -0.004068 x2) (+ (* -0.003343 x3) (+ (* -0.004654 x4) (+ (* -0.003642 x5) (+ (* -0.005428 x6) (+ (* -0.004182 x7) (+ (* -0.006831 x8) (+ (* -0.006285 x9) (+ (* -0.010651 x10) (+ (* -0.009472 x11) (+ (* -0.016962 x12) (+ (* -0.002491 x13) (* 0.981672 x14))))))))))))))))
      )
      (Inv x0_next x1_next x2_next x3_next x4_next x5_next x6_next x7_next x8_next x9_next x10_next x11_next x12_next x13_next x14_next)
    )
  )
)

;; 3. Safety Query (Actuator Saturation > 12.0V or < -12.0V)
(assert
  (forall ((x0 Real) (x1 Real) (x2 Real) (x3 Real) (x4 Real) (x5 Real) (x6 Real) (x7 Real) (x8 Real) (x9 Real) (x10 Real) (x11 Real) (x12 Real) (x13 Real) (x14 Real))
    (=>
      (and
        (Inv x0 x1 x2 x3 x4 x5 x6 x7 x8 x9 x10 x11 x12 x13 x14)
        (or
          (> (+ (* -0.302097 x0) (+ (* -0.371136 x1) (+ (* -0.349061 x2) (+ (* -0.400468 x3) (+ (* -0.389452 x4) (+ (* -0.451766 x5) (+ (* -0.441108 x6) (+ (* -0.537564 x7) (+ (* -0.540822 x8) (+ (* -0.802668 x9) (+ (* -0.844564 x10) (+ (* -1.246128 x11) (+ (* -1.248214 x12) (+ (* -1.201159 x13) (* -1.747014 x14))))))))))))))) 12.0)
          (< (+ (* -0.302097 x0) (+ (* -0.371136 x1) (+ (* -0.349061 x2) (+ (* -0.400468 x3) (+ (* -0.389452 x4) (+ (* -0.451766 x5) (+ (* -0.441108 x6) (+ (* -0.537564 x7) (+ (* -0.540822 x8) (+ (* -0.802668 x9) (+ (* -0.844564 x10) (+ (* -1.246128 x11) (+ (* -1.248214 x12) (+ (* -1.201159 x13) (* -1.747014 x14))))))))))))))) -12.0)
        )
      )
      false
    )
  )
)

(check-sat)
(get-model)
